<instance format="XCSP3" type="CSP">
  <variables>
    <var id="x0"> 0 10 13 </var>
    <var id="x1"> 9 10 14 </var>
    <var id="x2"> 1 5 10 13 </var>
    <var id="x3"> 0 1 10 13 </var>
    <var id="x4"> 1 5 9 10 13 </var>
    <var id="x5"> 5 13 14 </var>
    <var id="x6"> 0 1 10 13 </var>
    <var id="x7"> 1 3 5 </var>
    <var id="x8"> 3..5 12..14 </var>
    <var id="x9"> 3 4 13 </var>
    <var id="x10"> 1 3 5 13 </var>
    <var id="x11"> 1 5 </var>
    <var as="x8" id="x12"/>
    <var id="x13"> 1 12 14 </var>
    <var id="x14"> 1 3 5 8 10 </var>
    <var id="x15"> 0 12 </var>
    <var id="x16"> 0 3 4 8 10 </var>
    <var id="x17"> 4 8 10 </var>
    <var id="x18"> 3 8 10 </var>
    <var id="x19"> 0 1 4 10 </var>
    <var id="x20"> 0 1 5 10 </var>
    <var id="x21"> 0 1 10 12 </var>
    <var id="x22"> 2 9 </var>
    <var id="x23"> 2 6 9 11 </var>
    <var id="x24"> 6..8 10 </var>
    <var id="x25"> 6 8 10 </var>
    <var id="x26"> 2 6 8..10 </var>
    <var id="x27"> 2 9 10 </var>
    <var id="x28"> 6 </var>
    <var id="x29"> 8 10 11 </var>
    <var id="x30"> 2 4 13 </var>
    <var id="x31"> 0 2 11 13 </var>
    <var id="x32"> 0 4 8 10 13 </var>
    <var id="x33"> 2 8 10 </var>
    <var id="x34"> 0 2 10 </var>
    <var id="x35"> 0 4 10 13 </var>
    <var id="x36"> 1 5 10 </var>
    <var id="x37"> 4 9 10 </var>
    <var id="x38"> 1 4 5 10 </var>
    <var id="x39"> 1 5 10 </var>
    <var id="x40"> 0..2 5 9 10 </var>
    <var id="x41"> 4 5 </var>
    <var id="x42"> 0 1 4 10 </var>
    <var id="x43"> 1 5 11 12 14 </var>
    <var id="x44"> 5 12..14 </var>
    <var id="x45"> 6 13 </var>
    <var id="x46"> 1 5 6 </var>
    <var id="x47"> 1 11 13 </var>
    <var id="x48"> 1 5 12 13 </var>
    <var id="x49"> 1 11 12 14 </var>
    <var id="x50"> 2 3 6 10 </var>
    <var id="x51"> 1 2 4 10 13 </var>
    <var id="x52"> 1 2 6 10 </var>
    <var id="x53"> 1 2 10 13 </var>
    <var id="x54"> 3 4 6 13 </var>
    <var id="x55"> 1 10 </var>
    <var id="x56"> 1 4 6 10 13 </var>
    <var id="x57"> 1 6 8 10 </var>
    <var id="x58"> 1 10 14 </var>
    <var id="x59"> 2 4 14 </var>
    <var id="x60"> 4 6 8 10 </var>
    <var id="x61"> 4 6 8 10 14 </var>
    <var id="x62"> 1 4 6 8 10 </var>
    <var id="x63"> 1 6 8 10 </var>
    <var id="x64"> 1 5 10 11 14 </var>
    <var id="x65"> 5 14 </var>
    <var id="x66"> 6 11 </var>
    <var id="x67"> 6 8 10 14 </var>
    <var id="x68"> 1 5 6 8 10 </var>
    <var id="x69"> 6 8 10 14 </var>
    <var id="x70"> 1 6 10 </var>
    <var id="x71"> 1 3 6 10 </var>
    <var id="x72"> 3 12 13 </var>
    <var id="x73"> 0 6 12 13 </var>
    <var id="x74"> 6 10 </var>
    <var id="x75"> 1 6 10 </var>
    <var id="x76"> 0 1 6 10 </var>
    <var id="x77"> 3 6 12 13 </var>
    <var id="x78"> 10 12 </var>
    <var id="x79"> 2 9 12 </var>
    <var id="x80"> 0 2 6 9 12 </var>
    <var id="x81"> 6 10 </var>
    <var id="x82"> 0 2 10 </var>
    <var id="x83"> 0 2 6 9 10 </var>
    <var id="x84"> 0 7 10 12 </var>
    <var id="x85"> 6 7 10 13 </var>
    <var id="x86"> 6 7 10 14 </var>
    <var id="x87"> 6 10 14 </var>
    <var id="x88"> 10 13 </var>
    <var id="x89"> 5 10 12 13 </var>
    <var id="x90"> 7 10 12 14 </var>
    <var id="x91"> 6 10 12 13 </var>
    <var id="x92"> 3 6 8 11 </var>
    <var id="x93"> 4 6 8 </var>
    <var id="x94"> 3 6 8 </var>
    <var id="x95"> 3 6 8 9 </var>
    <var id="x96"> 9 12 </var>
    <var id="x97"> 11 12 </var>
    <var id="x98"> 4 6 12 </var>
    <var id="x99"> 3 5 6 10 </var>
    <var id="x100"> 5 10 </var>
    <var id="x101"> 6 9 13 </var>
    <var id="x102"> 3 6 7 10 13 </var>
    <var id="x103"> 10 13 </var>
    <var id="x104"> 5 9 10 13 </var>
    <var id="x105"> 3 5 6 13 </var>
  </variables>
  <constraints>
    <group>
      <allDifferent> %... </allDifferent>
      <args> x0 x1 x2 x3 x4 x5 x6 </args>
      <args> x7 x8 x9 x10 x11 x12 x13 </args>
      <args> x14 x15 x16 x17 x18 x19 x20 x21 </args>
      <args> x22 x23 x24 x25 x26 x27 x28 </args>
      <args> x29 x30 x31 x32 x33 x34 x35 </args>
      <args> x36 x37 x38 x39 x40 x41 x42 </args>
      <args> x43 x44 x45 x46 x47 x48 x49 </args>
      <args> x50 x51 x52 x53 x54 x55 x56 </args>
      <args> x57 x58 x59 x60 x61 x62 x63 </args>
      <args> x64 x65 x66 x67 x68 x69 x70 </args>
      <args> x71 x72 x73 x74 x75 x76 x77 </args>
      <args> x78 x79 x80 x81 x82 x83 x84 </args>
      <args> x85 x86 x87 x88 x89 x90 x91 </args>
      <args> x92 x93 x94 x95 x96 x97 x98 </args>
      <args> x99 x100 x101 x102 x103 x104 x105 </args>
      <args> x7 x14 x29 x57 x71 x92 x99 </args>
      <args> x36 x43 x58 x64 x78 x100 </args>
      <args> x8 x22 x30 x44 x59 x65 x72 x79 </args>
      <args> x15 x23 x31 x66 x73 x80 x101 </args>
      <args> x0 x9 x16 x32 x45 x60 x85 x102 </args>
      <args> x1 x17 x37 x61 x67 x74 x86 </args>
      <args> x24 x38 x46 x62 x68 x75 x93 </args>
      <args> x2 x10 x25 x39 x63 x81 x94 </args>
      <args> x18 x26 x33 x50 x69 x87 x95 </args>
      <args> x3 x19 x47 x51 x82 x88 x103 </args>
      <args> x11 x20 x34 x40 x52 x76 x83 </args>
      <args> x4 x27 x48 x53 x89 x96 x104 </args>
      <args> x5 x12 x28 x41 x54 x77 x105 </args>
      <args> x13 x21 x49 x55 x84 x90 x97 </args>
      <args> x6 x35 x42 x56 x70 x91 x98 </args>
    </group>
  </constraints>
</instance>

